decision_x1=[0,4];
decision_x2=[0,4];
decision_x3=[0,4];
decision_x4=[0,4];
random_y1=[0,4];
random_y2=[0,4];
constraint_x3_x1=[
0,1,6.2|
0,2,5.8|
0,3,5.9|
0,4,0.38|
1,0,9.7|
1,2,2.3|
1,3,7.8|
1,4,9.7|
2,0,7.8|
2,1,1.4|
2,3,8.7|
2,4,6.2|
3,0,1|
3,1,3.8|
3,2,1|
3,4,3.8|
4,0,0.28|
4,1,5.8|
4,2,9.6|
4,3,2.1|
];
constraint_x3_x2=[
0,1,5.4|
0,2,2.4|
0,3,4.4|
0,4,5.7|
1,0,4.6|
1,2,5.2|
1,3,5.3|
1,4,9.4|
2,0,1.4|
2,1,0.5|
2,3,7.4|
2,4,1.3|
3,0,2.5|
3,1,0.15|
3,2,1.7|
3,4,2.1|
4,0,6.8|
4,1,4|
4,2,4.8|
4,3,0.79|
];
constraint_x4_x2=[
0,1,7.9|
0,2,4.6|
0,3,2|
0,4,1.3|
1,0,8.9|
1,2,3.6|
1,3,0.46|
1,4,7.3|
2,0,8.5|
2,1,6.5|
2,3,5.8|
2,4,7.2|
3,0,8.2|
3,1,3.6|
3,2,1.8|
3,4,3.5|
4,0,0.48|
4,1,2.8|
4,2,9.8|
4,3,7.4|
];
constraint_x1_y1=[
0,0,6.9|
0,1,6.1|
0,2,3.8|
0,3,9.3|
0,4,5.6|
1,0,5|
1,1,3.7|
1,2,8.7|
1,3,4.9|
1,4,5|
2,0,8.7|
2,1,8.1|
2,2,2.6|
2,3,4.3|
2,4,2.6|
3,0,9.2|
3,1,9.3|
3,2,2|
3,3,6.1|
3,4,0.36|
4,0,9.3|
4,1,2.5|
4,2,3.7|
4,3,7|
4,4,3|
];
constraint_x2_y2=[
0,0,4|
0,1,4|
0,2,8|
0,3,3.9|
0,4,7.5|
1,0,1.6|
1,1,4.4|
1,2,4.2|
1,3,4.8|
1,4,7.7|
2,0,3.9|
2,1,6.4|
2,2,9|
2,3,7.7|
2,4,10|
3,0,8|
3,1,9.7|
3,2,8.6|
3,3,1.1|
3,4,5.4|
4,0,6.1|
4,1,0.88|
4,2,1|
4,3,4.9|
4,4,9.7|
];
initial_distribution_y1=[0.13,0.13,0.27,0.32,0.14];
initial_distribution_y2=[0.17,0.22,0.082,0.36,0.17];
transition_y1=[
0.34,0.27,0.22,0.14,0.026|
0.28,0.33,0.23,0.037,0.12|
0.23,0.13,0.14,0.28,0.22|
0.32,0.22,0.035,0.24,0.18|
0.41,0.2,0.25,0.12,0.036|
];
transition_y2=[
0.02,0.41,0.01,0.51,0.056|
0.32,0.052,0.39,0.13,0.11|
0.25,0.25,0.18,0.11,0.22|
0.0065,0.44,0.13,0.2,0.23|
0.26,0.28,0.21,0.22,0.024|
];
